  0 523 337 838 575 599  75 393 973 552 644 575 936 757 316
732   0 110   5 908 477  40  49 851 623 506 136 371 925 883
 59 418   0 840 249 275 638 906  76 735 619 343 896 105 503
457 239 264   0 676 979  99 284 831 519 906 436 440 615 294
750 329 436 402   0 327 615 911 300 512 628 362 140 273 760
203 463 865 989 664   0 892 703 275 498 419 542  10 499 956
615 276 923 776 854 378   0 499 855 686  47 950 741 214 137
685 386 402 570 239  92 907   0 394 625 478 419 540   3 851
340 303 526 250 709 505 956 197   0 947 262 984 103 229 366
 71 357 964 244 919 675 207 226 451   0 953 461  46 643 558
508 997 797 470 149 378  21 465 535 235   0 383  94 356 711
788 539 971   5 305 982 217 703  82 589 358   0 696 895 654
383 561 855  52 253 397 943 945 280 404 960 692   0 815 370
285 828 309 395  40 219 813 609 920 804 678 649 125   0  67
811 129  79 580 708 484  61 658 819 270 412 913  87 558   0